synthesis/NR_LRA/smt2/upper_bound25.smt2
(set-logic LRA)

(assert-synth (
    (x0 Real)
    (x1 Real)
    (x2 Real)
    (x3 Real)
    (x4 Real)
    (x5 Real)
    (x6 Real)
    (x7 Real)
    (x8 Real)
    (x9 Real)
    (x10 Real)
    (x11 Real)
    (x12 Real)
    (x13 Real)
    (x14 Real)
    (x15 Real)
    (x16 Real)
    (x17 Real)
    (x18 Real)
    (x19 Real)
    (x20 Real)
    (x21 Real)
    (x22 Real)
    (x23 Real)
    (x24 Real)
    )
    ((y Real))
        (and
            (>= y x0)
            (>= y x1)
            (>= y x2)
            (>= y x3)
            (>= y x4)
            (>= y x5)
            (>= y x6)
            (>= y x7)
            (>= y x8)
            (>= y x9)
            (>= y x10)
            (>= y x11)
            (>= y x12)
            (>= y x13)
            (>= y x14)
            (>= y x15)
            (>= y x16)
            (>= y x17)
            (>= y x18)
            (>= y x19)
            (>= y x20)
            (>= y x21)
            (>= y x22)
            (>= y x23)
            (>= y x24)
))
